100
1000
207
205
204
203
203
200
199
198
196
196
196
195
195
195
192
190
189
188
188
187
187
185
180
179
176
175
172
171
170
170
169
168
168
165
164
164
163
163
161
160
158
155
154
153
152
150
150
149
149
148
148
143
139
137
136
136
134
134
132
132
131
129
127
127
127
125
120
120
117
117
116
116
113
112
109
107
105
103
99
99
97
95
95
95
95
95
93
91
86
84
82
81
80
79
77
77
77
76
74
72
